NAME /Users/henri/Research/solvers/instances/idol-instances/robust/collection/spp_dkp_Lefebvre_et_al_2026/shortest_path_4_2/uncertainty_sets/discrete_knapsack
ROWS
 N  OBJ
 L  primal_lower
COLUMNS
    MARKER    'MARKER'                 'INTORG'
    y[0,1]     OBJ        0
    y[0,1]     primal_lower -7.43
    y[0,2]     OBJ        0
    y[0,2]     primal_lower -0.93
    y[0,3]     OBJ        0
    y[0,3]     primal_lower -6.63
    y[1,0]     OBJ        0
    y[1,0]     primal_lower -3.21
    y[1,3]     OBJ        0
    y[1,3]     primal_lower -3.2
    y[2,0]     OBJ        0
    y[2,0]     primal_lower -5.42
    y[2,3]     OBJ        0
    y[2,3]     primal_lower -3.5
    y[3,0]     OBJ        0
    y[3,0]     primal_lower -3.64
    y[3,1]     OBJ        0
    y[3,1]     primal_lower -4.54
    y[3,2]     OBJ        0
    y[3,2]     primal_lower -6.32
    u[0,1]     OBJ        0
    u[0,1]     primal_lower 77
    u[0,2]     OBJ        0
    u[0,2]     primal_lower 11
    u[0,3]     OBJ        0
    u[0,3]     primal_lower 77
    u[1,0]     OBJ        0
    u[1,0]     primal_lower 60
    u[1,3]     OBJ        0
    u[1,3]     primal_lower 43
    u[2,0]     OBJ        0
    u[2,0]     primal_lower 49
    u[2,3]     OBJ        0
    u[2,3]     primal_lower 76
    u[3,0]     OBJ        0
    u[3,0]     primal_lower 61
    u[3,1]     OBJ        0
    u[3,1]     primal_lower 89
    u[3,2]     OBJ        0
    u[3,2]     primal_lower 51
    MARKER    'MARKER'                 'INTEND'
RHS
    RHS       primal_lower 89
BOUNDS
 LI BND       y[0,1]     0
 UI BND       y[0,1]     1
 LI BND       y[0,2]     0
 UI BND       y[0,2]     1
 LI BND       y[0,3]     0
 UI BND       y[0,3]     1
 LI BND       y[1,0]     0
 UI BND       y[1,0]     1
 LI BND       y[1,3]     0
 UI BND       y[1,3]     1
 LI BND       y[2,0]     0
 UI BND       y[2,0]     1
 LI BND       y[2,3]     0
 UI BND       y[2,3]     1
 LI BND       y[3,0]     0
 UI BND       y[3,0]     1
 LI BND       y[3,1]     0
 UI BND       y[3,1]     1
 LI BND       y[3,2]     0
 UI BND       y[3,2]     1
 LI BND       u[0,1]     0
 UI BND       u[0,1]     1
 LI BND       u[0,2]     0
 UI BND       u[0,2]     1
 LI BND       u[0,3]     0
 UI BND       u[0,3]     1
 LI BND       u[1,0]     0
 UI BND       u[1,0]     1
 LI BND       u[1,3]     0
 UI BND       u[1,3]     1
 LI BND       u[2,0]     0
 UI BND       u[2,0]     1
 LI BND       u[2,3]     0
 UI BND       u[2,3]     1
 LI BND       u[3,0]     0
 UI BND       u[3,0]     1
 LI BND       u[3,1]     0
 UI BND       u[3,1]     1
 LI BND       u[3,2]     0
 UI BND       u[3,2]     1
ENDATA
